Test: battleship-10-10-unsat.cnf
Options: -no-inverting-opt -sym-var-bump
WARNING: for repeatability, setting FPU to use double precision
============================[ Problem Statistics ]=============================
|                                                                             |
|  Number of symmetries:            8                                         |
|  Number of invertingSyms:         0                                         |
|  Number of variables:           100                                         |
|  Number of clauses:             550                                         |
|  Parse time:                   0.00 s                                       |
|                                                                             |
============================[ Search Statistics ]==============================
| Conflicts |          ORIGINAL         |          LEARNT          | Progress |
|           |    Vars  Clauses Literals |    Limit  Clauses Lit/Cl |          |
===============================================================================
|       100 |     100      550     1900 |      201      100     28 |  0.010 % |
|       250 |     100      550     1900 |      221      148     26 |  0.010 % |
|       475 |     100      550     1900 |      244      245     24 |  0.010 % |
|       812 |     100      550     1900 |      268      162     20 |  0.010 % |
|      1318 |     100      550     1900 |      295      218     19 |  0.010 % |
|      2077 |     100      550     1900 |      324      328     20 |  0.010 % |
|      3216 |     100      550     1900 |      357      208     17 |  0.010 % |
|      4924 |     100      550     1900 |      392      203     17 |  0.010 % |
|      7486 |     100      550     1900 |      432      279     16 |  0.010 % |
===============================================================================
restarts              : 31
conflicts             : 7692           (83604 /sec)
symconflicts          : 23             (250 /sec)
decisions             : 9593           (0.00 % random) (104266 /sec)
propagations          : 161793         (1758524 /sec)
sympropagations       : 218            (2369 /sec)
conflict literals     : 181771         (8.51 % deleted)
literals     : 181771         (8.51 % deleted)

HEURISTIC USAGES
random                : 0           
activity w/ lookahead : 0           
activity no lookahead : 0           
original sp           : 9593        
sym count             : 0           

Memory used           : 5.00 MB
CPU time              : 0.092005 s

UNSATISFIABLE
